33D32945 STP File, STP Format Version 1.0

SECTION Comments
Name "nsimp_4"
Creator "Warren Smith"
Problem "Euclidean Steiner Tree Problem"
Remark "Converted automatically"
END

SECTION Graph
Nodes 5
END

SECTION Coordinates
DDDDD 1 1.00000000000000 0.00000000000000 0.00000000000000 0.00000000000000 0.00000000000000 
DDDDD 2 0.00000000000000 1.00000000000000 0.00000000000000 0.00000000000000 0.00000000000000 
DDDDD 3 0.00000000000000 0.00000000000000 1.00000000000000 0.00000000000000 0.00000000000000 
DDDDD 4 0.00000000000000 0.00000000000000 0.00000000000000 1.00000000000000 0.00000000000000 
DDDDD 5 0.00000000000000 0.00000000000000 0.00000000000000 0.00000000000000 1.00000000000000 
END

EOF
